Route #1: 1 42 392 167 1 
Route #2: 1 246 181 303 1 
Route #3: 1 213 360 397 1 
Route #4: 1 193 100 367 288 1 
Route #5: 1 295 444 232 1 
Route #6: 1 19 183 185 1 
Route #7: 1 14 96 102 44 1 
Route #8: 1 79 212 49 1 
Route #9: 1 129 238 88 191 1 
Route #10: 1 274 77 354 1 
Route #11: 1 189 3 131 1 
Route #12: 1 139 422 184 1 
Route #13: 1 187 196 358 1 
Route #14: 1 117 237 31 1 
Route #15: 1 261 207 1 1 
Route #16: 1 287 456 201 1 
Route #17: 1 29 305 241 1 
Route #18: 1 412 101 449 1 
Route #19: 1 223 110 220 1 
Route #20: 1 159 172 66 1 
Route #21: 1 43 321 445 1 
Route #22: 1 160 157 291 338 1 
Route #23: 1 82 112 231 1 
Route #24: 1 431 254 313 1 
Route #25: 1 467 333 134 1 
Route #26: 1 466 9 5 1 
Route #27: 1 323 234 265 1 
Route #28: 1 54 57 10 1 
Route #29: 1 370 381 73 1 
Route #30: 1 23 379 326 1 
Route #31: 1 459 248 320 1 
Route #32: 1 361 222 230 1 
Route #33: 1 4 91 156 1 
Route #34: 1 209 376 310 1 
Route #35: 1 318 414 188 1 
Route #36: 1 138 6 63 1 
Route #37: 1 417 48 132 1 
Route #38: 1 152 93 8 1 
Route #39: 1 385 78 45 1 
Route #40: 1 244 94 211 1 
Route #41: 1 15 424 56 301 1 
Route #42: 1 72 30 372 1 
Route #43: 1 251 28 437 1 
Route #44: 1 245 416 224 1 
Route #45: 1 144 342 65 35 1 
Route #46: 1 432 39 439 1 
Route #47: 1 267 263 271 1 
Route #48: 1 182 365 340 1 
Route #49: 1 206 20 375 1 
Route #50: 1 114 121 298 1 
Route #51: 1 198 27 115 1 
Route #52: 1 421 151 136 1 
Route #53: 1 190 186 106 268 1 
Route #54: 1 378 80 343 154 1 
Route #55: 1 155 442 286 1 
Route #56: 1 269 40 71 1 
Route #57: 1 103 169 433 1 
Route #58: 1 289 26 447 107 1 
Route #59: 1 122 113 205 1 
Route #60: 1 448 443 235 389 1 
Route #61: 1 266 59 352 434 1 
Route #62: 1 133 36 178 1 
Route #63: 1 377 394 67 1 
Route #64: 1 221 411 450 1 
Route #65: 1 214 194 61 1 
Route #66: 1 149 314 83 1 
Route #67: 1 236 38 46 1 
Route #68: 1 127 463 258 1 
Route #69: 1 390 252 109 1 
Route #70: 1 349 33 148 1 
Route #71: 1 17 441 51 1 
Route #72: 1 391 309 403 1 
Route #73: 1 153 329 60 1 
Route #74: 1 300 452 124 1 
Route #75: 1 243 95 175 1 
Route #76: 1 81 280 216 1 
Route #77: 1 395 141 34 1 
Route #78: 1 285 64 322 1 
Route #79: 1 218 402 369 1 
Route #80: 1 457 294 461 146 1 
Route #81: 1 76 55 242 1 
Route #82: 1 373 283 282 1 
Route #83: 1 173 384 302 1 
Route #84: 1 357 25 418 1 
Route #85: 1 98 366 408 1 
Route #86: 1 86 458 406 1 
Route #87: 1 256 319 200 1 
Route #88: 1 400 150 137 1 
Route #89: 1 374 278 428 1 
Route #90: 1 353 90 85 1 
Route #91: 1 327 250 215 1 
Route #92: 1 74 359 170 1 
Route #93: 1 362 176 275 1 
Route #94: 1 423 120 330 1 
Route #95: 1 111 53 225 1 
Route #96: 1 130 174 165 1 
Route #97: 1 135 419 368 1 
Route #98: 1 217 290 304 1 
Route #99: 1 281 197 177 1 
Route #100: 1 13 255 334 126 1 
Route #101: 1 2 410 119 1 
Route #102: 1 454 308 180 1 
Route #103: 1 210 345 32 438 1 
Route #104: 1 347 306 58 1 
Route #105: 1 293 69 468 1 
Route #106: 1 337 97 426 279 1 
Route #107: 1 125 427 284 364 1 
Route #108: 1 446 325 425 1 
Route #109: 1 52 247 311 1 
Route #110: 1 436 409 227 1 
Route #111: 1 68 405 219 1 
Route #112: 1 18 260 407 1 
Route #113: 1 128 199 92 1 
Route #114: 1 249 396 12 1 
Route #115: 1 166 371 355 1 
Route #116: 1 195 351 363 1 
Route #117: 1 22 299 398 1 
Route #118: 1 147 253 163 1 
Route #119: 1 203 116 292 1 
Route #120: 1 105 332 348 1 
Route #121: 1 462 75 41 1 
Route #122: 1 24 315 277 1 
Route #123: 1 99 341 11 270 1 
Route #124: 1 383 324 70 62 1 
Route #125: 1 346 380 335 1 
Route #126: 1 192 202 204 1 
Route #127: 1 21 140 239 1 
Route #128: 1 145 84 451 1 
Route #129: 1 162 316 272 1 
Route #130: 1 386 161 460 1 
Route #131: 1 430 356 435 1 
Route #132: 1 142 440 87 1 
Route #133: 1 336 297 401 1 
Route #134: 1 317 50 143 1 
Route #135: 1 226 350 208 1 
Route #136: 1 388 264 118 1 
Route #137: 1 464 164 399 1 
Route #138: 1 171 233 455 1 
Route #139: 1 16 276 413 1 
Route #140: 1 47 104 108 1 
Route #141: 1 415 429 328 1 
Route #142: 1 123 331 420 1 
Route #143: 1 387 257 465 1 
Route #144: 1 307 229 453 1 
Route #145: 1 382 393 7 1 
Route #146: 1 168 228 262 1 
Route #147: 1 339 240 404 158 1 
Route #148: 1 344 37 296 1 
Route #149: 1 259 89 273 1 
Route #150: 1 312 179 1 

Cost 182859
Time 36.5942


 * Another infos *

 Iterations: 469 Time: 36.5942 sec - 0.6099 min - 0.0102 horas
0.0000 h 0.6099 min
Problem dimension: 469
